;; Mutation-Based Equivalence Benchmark
;; Source:     AutomatArk / instance14699.smt2
;; Mutations:  range_expand_hi, literal_char_dec, range_expand_hi
;; Status:     sat
;;
;; Original regex vs mutated regex
;; Equivalence check: unsat ⟺ L(R1) = L(R2)

(set-info :smt-lib-version 2.6)
(set-info :category "mutation")
(set-info :status sat)
(set-logic QF_S)

(declare-const x String)

;; R1: original
;; R2: mutated (range_expand_hi, literal_char_dec, range_expand_hi)
(assert
  (str.in_re x
    (re.union (re.inter (re.++ (re.opt (re.++ (re.opt (re.++ (str.to_re "http") (re.opt (str.to_re "s")) (str.to_re "://"))) ((_ re.loop 4 255) (re.union (re.range "a" "z") (str.to_re "|") (re.range "A" "Z") (re.range "0" "9") (str.to_re ".") (str.to_re "-") (str.to_re "_"))) (re.opt (re.++ (str.to_re ":") ((_ re.loop 1 5) (re.range "0" "9")))))) (re.opt (re.++ ((_ re.loop 1 255) (re.++ (str.to_re "/") ((_ re.loop 1 255) (re.union (re.++ (str.to_re "%") ((_ re.loop 2 2) (re.union (re.range "A" "F") (str.to_re "|") (re.range "a" "f") (re.range "0" "9")))) (re.range "a" "z") (str.to_re "|") (re.range "A" "Z") (re.range "0" "9") (str.to_re ".") (str.to_re "-") (str.to_re "_"))))) (re.opt (str.to_re "/")))) (re.opt (re.++ (re.opt (str.to_re "/")) (str.to_re "?") ((_ re.loop 1 255) (re.union (re.range "a" "z") (str.to_re "|") (re.range "A" "Z") (re.range "0" "9") (str.to_re ".") (str.to_re "-") (str.to_re "_"))) (str.to_re "=") ((_ re.loop 0 255) (re.union (re.++ (str.to_re "%") ((_ re.loop 2 2) (re.union (re.range "A" "F") (str.to_re "|") (re.range "a" "f") (re.range "0" "9")))) (re.++ (str.to_re "&") ((_ re.loop 2 12) (re.union (re.range "a" "z") (str.to_re "|") (re.range "A" "Z"))) (str.to_re ";")) (re.range "a" "z") (str.to_re "|") (re.range "A" "Z") (re.range "0" "9") (str.to_re ".") (str.to_re "-") (str.to_re "_") (str.to_re "+") (str.to_re ":"))))) ((_ re.loop 0 255) (re.++ (str.to_re "&") ((_ re.loop 1 255) (re.union (re.range "a" "z") (str.to_re "|") (re.range "A" "Z") (re.range "0" "9") (str.to_re ".") (str.to_re "-") (str.to_re "_"))) (str.to_re "=") ((_ re.loop 0 255) (re.union (re.++ (str.to_re "%") ((_ re.loop 2 2) (re.union (re.range "A" "F") (str.to_re "|") (re.range "a" "f") (re.range "0" "9")))) (re.++ (str.to_re "&") ((_ re.loop 2 12) (re.union (re.range "a" "z") (str.to_re "|") (re.range "A" "Z"))) (str.to_re ";")) (re.range "a" "z") (str.to_re "|") (re.range "A" "Z") (re.range "0" "9") (str.to_re ".") (str.to_re "-") (str.to_re "_") (str.to_re "+") (str.to_re ":"))))) (re.union (re.opt (str.to_re "/")) (re.++ (str.to_re "#") ((_ re.loop 0 255) (re.union (re.++ (str.to_re "%") ((_ re.loop 2 2) (re.union (re.range "A" "F") (str.to_re "|") (re.range "a" "f") (re.range "0" "9")))) (re.++ (str.to_re "&") ((_ re.loop 2 12) (re.union (re.range "a" "z") (str.to_re "|") (re.range "A" "Z"))) (str.to_re ";")) (re.range "a" "z") (str.to_re "|") (re.range "A" "Z") (re.range "0" "9") (str.to_re ".") (str.to_re "-") (str.to_re "_") (str.to_re "+") (str.to_re ":"))))) (str.to_re "\u{a}")) (re.comp (re.++ (re.opt (re.++ (re.opt (re.++ (str.to_re "http") (re.opt (str.to_re "s")) (str.to_re "://"))) ((_ re.loop 4 255) (re.union (re.range "a" "z") (str.to_re "|") (re.range "A" "Z") (re.range "0" "9") (str.to_re ".") (str.to_re "-") (str.to_re "_"))) (re.opt (re.++ (str.to_re ":") ((_ re.loop 1 5) (re.range "0" "9")))))) (re.opt (re.++ ((_ re.loop 1 255) (re.++ (str.to_re "/") ((_ re.loop 1 255) (re.union (re.++ (str.to_re "%") ((_ re.loop 2 2) (re.union (re.range "A" "F") (str.to_re "|") (re.range "a" "f") (re.range "0" "9")))) (re.range "a" "z") (str.to_re "|") (re.range "A" "Z") (re.range "0" ":") (str.to_re ".") (str.to_re "-") (str.to_re "_"))))) (re.opt (str.to_re "/")))) (re.opt (re.++ (re.opt (str.to_re "/")) (str.to_re "?") ((_ re.loop 1 255) (re.union (re.range "a" "z") (str.to_re "|") (re.range "A" "Z") (re.range "0" "9") (str.to_re ".") (str.to_re "-") (str.to_re "_"))) (str.to_re "<") ((_ re.loop 0 255) (re.union (re.++ (str.to_re "%") ((_ re.loop 2 2) (re.union (re.range "A" "F") (str.to_re "|") (re.range "a" "f") (re.range "0" "9")))) (re.++ (str.to_re "&") ((_ re.loop 2 12) (re.union (re.range "a" "z") (str.to_re "|") (re.range "A" "Z"))) (str.to_re ";")) (re.range "a" "z") (str.to_re "|") (re.range "A" "Z") (re.range "0" "9") (str.to_re ".") (str.to_re "-") (str.to_re "_") (str.to_re "+") (str.to_re ":"))))) ((_ re.loop 0 255) (re.++ (str.to_re "&") ((_ re.loop 1 255) (re.union (re.range "a" "z") (str.to_re "|") (re.range "A" "Z") (re.range "0" "9") (str.to_re ".") (str.to_re "-") (str.to_re "_"))) (str.to_re "=") ((_ re.loop 0 255) (re.union (re.++ (str.to_re "%") ((_ re.loop 2 2) (re.union (re.range "A" "G") (str.to_re "|") (re.range "a" "f") (re.range "0" "9")))) (re.++ (str.to_re "&") ((_ re.loop 2 12) (re.union (re.range "a" "z") (str.to_re "|") (re.range "A" "Z"))) (str.to_re ";")) (re.range "a" "z") (str.to_re "|") (re.range "A" "Z") (re.range "0" "9") (str.to_re ".") (str.to_re "-") (str.to_re "_") (str.to_re "+") (str.to_re ":"))))) (re.union (re.opt (str.to_re "/")) (re.++ (str.to_re "#") ((_ re.loop 0 255) (re.union (re.++ (str.to_re "%") ((_ re.loop 2 2) (re.union (re.range "A" "F") (str.to_re "|") (re.range "a" "f") (re.range "0" "9")))) (re.++ (str.to_re "&") ((_ re.loop 2 12) (re.union (re.range "a" "z") (str.to_re "|") (re.range "A" "Z"))) (str.to_re ";")) (re.range "a" "z") (str.to_re "|") (re.range "A" "Z") (re.range "0" "9") (str.to_re ".") (str.to_re "-") (str.to_re "_") (str.to_re "+") (str.to_re ":"))))) (str.to_re "\u{a}")))) (re.inter (re.comp (re.++ (re.opt (re.++ (re.opt (re.++ (str.to_re "http") (re.opt (str.to_re "s")) (str.to_re "://"))) ((_ re.loop 4 255) (re.union (re.range "a" "z") (str.to_re "|") (re.range "A" "Z") (re.range "0" "9") (str.to_re ".") (str.to_re "-") (str.to_re "_"))) (re.opt (re.++ (str.to_re ":") ((_ re.loop 1 5) (re.range "0" "9")))))) (re.opt (re.++ ((_ re.loop 1 255) (re.++ (str.to_re "/") ((_ re.loop 1 255) (re.union (re.++ (str.to_re "%") ((_ re.loop 2 2) (re.union (re.range "A" "F") (str.to_re "|") (re.range "a" "f") (re.range "0" "9")))) (re.range "a" "z") (str.to_re "|") (re.range "A" "Z") (re.range "0" "9") (str.to_re ".") (str.to_re "-") (str.to_re "_"))))) (re.opt (str.to_re "/")))) (re.opt (re.++ (re.opt (str.to_re "/")) (str.to_re "?") ((_ re.loop 1 255) (re.union (re.range "a" "z") (str.to_re "|") (re.range "A" "Z") (re.range "0" "9") (str.to_re ".") (str.to_re "-") (str.to_re "_"))) (str.to_re "=") ((_ re.loop 0 255) (re.union (re.++ (str.to_re "%") ((_ re.loop 2 2) (re.union (re.range "A" "F") (str.to_re "|") (re.range "a" "f") (re.range "0" "9")))) (re.++ (str.to_re "&") ((_ re.loop 2 12) (re.union (re.range "a" "z") (str.to_re "|") (re.range "A" "Z"))) (str.to_re ";")) (re.range "a" "z") (str.to_re "|") (re.range "A" "Z") (re.range "0" "9") (str.to_re ".") (str.to_re "-") (str.to_re "_") (str.to_re "+") (str.to_re ":"))))) ((_ re.loop 0 255) (re.++ (str.to_re "&") ((_ re.loop 1 255) (re.union (re.range "a" "z") (str.to_re "|") (re.range "A" "Z") (re.range "0" "9") (str.to_re ".") (str.to_re "-") (str.to_re "_"))) (str.to_re "=") ((_ re.loop 0 255) (re.union (re.++ (str.to_re "%") ((_ re.loop 2 2) (re.union (re.range "A" "F") (str.to_re "|") (re.range "a" "f") (re.range "0" "9")))) (re.++ (str.to_re "&") ((_ re.loop 2 12) (re.union (re.range "a" "z") (str.to_re "|") (re.range "A" "Z"))) (str.to_re ";")) (re.range "a" "z") (str.to_re "|") (re.range "A" "Z") (re.range "0" "9") (str.to_re ".") (str.to_re "-") (str.to_re "_") (str.to_re "+") (str.to_re ":"))))) (re.union (re.opt (str.to_re "/")) (re.++ (str.to_re "#") ((_ re.loop 0 255) (re.union (re.++ (str.to_re "%") ((_ re.loop 2 2) (re.union (re.range "A" "F") (str.to_re "|") (re.range "a" "f") (re.range "0" "9")))) (re.++ (str.to_re "&") ((_ re.loop 2 12) (re.union (re.range "a" "z") (str.to_re "|") (re.range "A" "Z"))) (str.to_re ";")) (re.range "a" "z") (str.to_re "|") (re.range "A" "Z") (re.range "0" "9") (str.to_re ".") (str.to_re "-") (str.to_re "_") (str.to_re "+") (str.to_re ":"))))) (str.to_re "\u{a}"))) (re.++ (re.opt (re.++ (re.opt (re.++ (str.to_re "http") (re.opt (str.to_re "s")) (str.to_re "://"))) ((_ re.loop 4 255) (re.union (re.range "a" "z") (str.to_re "|") (re.range "A" "Z") (re.range "0" "9") (str.to_re ".") (str.to_re "-") (str.to_re "_"))) (re.opt (re.++ (str.to_re ":") ((_ re.loop 1 5) (re.range "0" "9")))))) (re.opt (re.++ ((_ re.loop 1 255) (re.++ (str.to_re "/") ((_ re.loop 1 255) (re.union (re.++ (str.to_re "%") ((_ re.loop 2 2) (re.union (re.range "A" "F") (str.to_re "|") (re.range "a" "f") (re.range "0" "9")))) (re.range "a" "z") (str.to_re "|") (re.range "A" "Z") (re.range "0" ":") (str.to_re ".") (str.to_re "-") (str.to_re "_"))))) (re.opt (str.to_re "/")))) (re.opt (re.++ (re.opt (str.to_re "/")) (str.to_re "?") ((_ re.loop 1 255) (re.union (re.range "a" "z") (str.to_re "|") (re.range "A" "Z") (re.range "0" "9") (str.to_re ".") (str.to_re "-") (str.to_re "_"))) (str.to_re "<") ((_ re.loop 0 255) (re.union (re.++ (str.to_re "%") ((_ re.loop 2 2) (re.union (re.range "A" "F") (str.to_re "|") (re.range "a" "f") (re.range "0" "9")))) (re.++ (str.to_re "&") ((_ re.loop 2 12) (re.union (re.range "a" "z") (str.to_re "|") (re.range "A" "Z"))) (str.to_re ";")) (re.range "a" "z") (str.to_re "|") (re.range "A" "Z") (re.range "0" "9") (str.to_re ".") (str.to_re "-") (str.to_re "_") (str.to_re "+") (str.to_re ":"))))) ((_ re.loop 0 255) (re.++ (str.to_re "&") ((_ re.loop 1 255) (re.union (re.range "a" "z") (str.to_re "|") (re.range "A" "Z") (re.range "0" "9") (str.to_re ".") (str.to_re "-") (str.to_re "_"))) (str.to_re "=") ((_ re.loop 0 255) (re.union (re.++ (str.to_re "%") ((_ re.loop 2 2) (re.union (re.range "A" "G") (str.to_re "|") (re.range "a" "f") (re.range "0" "9")))) (re.++ (str.to_re "&") ((_ re.loop 2 12) (re.union (re.range "a" "z") (str.to_re "|") (re.range "A" "Z"))) (str.to_re ";")) (re.range "a" "z") (str.to_re "|") (re.range "A" "Z") (re.range "0" "9") (str.to_re ".") (str.to_re "-") (str.to_re "_") (str.to_re "+") (str.to_re ":"))))) (re.union (re.opt (str.to_re "/")) (re.++ (str.to_re "#") ((_ re.loop 0 255) (re.union (re.++ (str.to_re "%") ((_ re.loop 2 2) (re.union (re.range "A" "F") (str.to_re "|") (re.range "a" "f") (re.range "0" "9")))) (re.++ (str.to_re "&") ((_ re.loop 2 12) (re.union (re.range "a" "z") (str.to_re "|") (re.range "A" "Z"))) (str.to_re ";")) (re.range "a" "z") (str.to_re "|") (re.range "A" "Z") (re.range "0" "9") (str.to_re ".") (str.to_re "-") (str.to_re "_") (str.to_re "+") (str.to_re ":"))))) (str.to_re "\u{a}"))))))

(check-sat)
(exit)
